WARNING: for repeatability, setting FPU to use double precision
============================[ Problem Statistics ]=============================
|                                                                             |
|  Number of variables:           100                                         |
|  Number of clauses:             449                                         |
|  Parse time:                   0.00 s                                       |
|  Eliminated clauses:           0.00 Mb                                      |
|  Simplification time:          0.00 s                                       |
|                                                                             |
============================[ Search Statistics ]==============================
| Conflicts |          ORIGINAL         |          LEARNT          | Progress |
|           |    Vars  Clauses Literals |    Limit  Clauses Lit/Cl |          |
===============================================================================
|       100 |      98      446     1356 |      163      100      8 |  0.010 % |
|       250 |      98      446     1356 |      179      167      7 |  0.010 % |
|       475 |      97      435     1323 |      197      181      6 |  1.030 % |
===============================================================================
restarts              : 4
conflicts             : 492            (205686 /sec)
decisions             : 587            (0.00 % random) (245401 /sec)
propagations          : 12145          (5077341 /sec)
conflict literals     : 3110           (22.87 % deleted)
Memory used           : 13.00 MB
CPU time              : 0.002392 s

SATISFIABLE
